10J3M/DAT/10J3MUNL-20.dat
10 3
12.423 12.423
8.6311 8.6311
24.4358 24.4358
37.0946 37.0946
8.343 8.343
8.5362 8.5362
42.3337 42.3337
30.7361 30.7361
30.2264 30.2264
26.0407 26.0407
228.8006