10J3M/SOL/10J3MUNL-20.sol
solution status: optimal solution found
objective value:                     76.2668666666667
x#1#1                                               1 	(obj:0)
x#2#1                                               1 	(obj:0)
x#3#2                                               1 	(obj:0)
x#4#2                              0.0852262413756537 	(obj:0)
x#4#3                               0.914773758624346 	(obj:0)
x#5#1                                               1 	(obj:0)
x#6#1                                               1 	(obj:0)
x#7#3                                               1 	(obj:0)
x#8#2                                               1 	(obj:0)
x#9#1                               0.406693045373139 	(obj:0)
x#9#2                                0.59330695462686 	(obj:0)
x#10#1                                              1 	(obj:0)
z                                    76.2668666666667 	(obj:1)
